(set-info :smt-lib-version 2.6)
(set-logic UFNRA)
(set-info :source |
Generated by: Geoff Sutcliffe
Generated on: 2026-03-11
Generator: TPTPWorld
Application: Benchmarking automated theorem provers
Time limit: 120.0

These benchmarks are translations from the TPTP Library (Thousands of
Problems for Theorem Provers), see http://www.cs.miami.edu/~tptp/

The TPTP is maintained by Geoff Sutcliffe, and he contributed this
selection of benchmarks to SMT-LIB.  They were exported from the
v9.2.1 realease of TPTP.
|)
(set-info :category "industrial")
(set-info :status "unknown")
; SZS status Success
(declare-sort $$unsorted 0)
(declare-fun tptp.exp (Real) Real)
(assert (= (tptp.exp 0.0) 1.0))
(assert (forall ((X Real) (Y Real)) (= (tptp.exp (+ X Y)) (* (tptp.exp X) (tptp.exp Y)))))
(declare-fun tptp.log (Real) Real)
(assert (= (tptp.log 1.0) 0.0))
(assert (forall ((X Real) (Y Real)) (=> (and (< 0.0 X) (< 0.0 Y)) (= (tptp.log (* X Y)) (+ (tptp.log X) (tptp.log Y))))))
(assert (forall ((X Real)) (= (tptp.log (tptp.exp X)) X)))
(assert (forall ((X Real)) (=> (< 0.0 X) (= (tptp.exp (tptp.log X)) X))))
(declare-fun tptp.log2 (Real) Real)
(assert (forall ((X Real)) (= (tptp.log2 X) (/ (tptp.log X) (tptp.log 2.0)))))
(declare-fun tptp.log10 (Real) Real)
(assert (forall ((X Real)) (= (tptp.log10 X) (/ (tptp.log X) (tptp.log 10.0)))))
(assert (not (= (tptp.log (tptp.exp 1.0)) 1.0)))
(check-sat)
(exit)
